
  22   10
  10   10   10   10   10   10   10   10   10   10

   0   0   0   0   0   0   0   0   0   0   0   6 2 4 6 7 9 11 
   4  10  10  10  10  10  10  10  10  10  10   3 18 5 3 
   3  10  10  10  10  10  10  10  10  10  10   3 21 13 8 
   5  10  10  10  10  10  10  10  10  10  10   6 20 19 18 17 16 12 
   9  10  10  10  10  10  10  10  10  10  10   5 20 19 17 14 13 
   1  10  10  10  10  10  10  10  10  10  10   3 18 13 10 
   1  10  10  10  10  10  10  10  10  10  10   4 18 16 13 12 
   9  10  10  10  10  10  10  10  10  10  10   2 17 10 
   8  10  10  10  10  10  10  10  10  10  10   2 19 10 
   7  10  10  10  10  10  10  10  10  10  10   2 16 12 
   4  10  10  10  10  10  10  10  10  10  10   2 16 12 
   6  10  10  10  10  10  10  10  10  10  10   1 15 
   7  10  10  10  10  10  10  10  10  10  10   1 15 
  10  10  10  10  10  10  10  10  10  10  10   1 16 
   2  10  10  10  10  10  10  10  10  10  10   1 22
   1  10  10  10  10  10  10  10  10  10  10   1 22
   7  10  10  10  10  10  10  10  10  10  10   1 22
   2  10  10  10  10  10  10  10  10  10  10   1 22
   1  10  10  10  10  10  10  10  10  10  10   1 22
   5  10  10  10  10  10  10  10  10  10  10   1 22
   3  10  10  10  10  10  10  10  10  10  10   1 22
   0   0   0   0   0   0   0   0   0   0   0   0 
